Copyright (C) 2013-2015, Filipe Brandao
Build (method = -2)
  #dp: 90491
  Step-3' Graph: 550 vertices and 46190 arcs (0.34s)
  Step-4' Graph: 539 vertices and 46168 arcs (0.35s)
  #V4/#V3 = 0.98
  #A4/#A3 = 1.00
Ready! (0.35s)
Optimize a model with 837 rows, 46169 columns and 137434 nonzeros
Presolve removed 102 rows and 103 columns
Presolve time: 0.29s
Presolved: 735 rows, 46066 columns, 136849 nonzeros
Variable types: 0 continuous, 46066 integer (21606 binary)
Optimize a model with 735 rows, 46066 columns and 136849 nonzeros
Presolved: 735 rows, 46066 columns, 136849 nonzeros

Root barrier log...

Ordering time: 0.01s

Barrier statistics:
 AA' NZ     : 8.586e+04
 Factor NZ  : 1.705e+05 (roughly 20 MBytes of memory)
 Factor Ops : 5.239e+07 (less than 1 second per iteration)
 Threads    : 1

                  Objective                Residual
Iter       Primal          Dual         Primal    Dual     Compl     Time
   0   1.31267702e+05 -1.04464003e+06  2.11e+06 9.73e-02  2.12e+02     0s
   1   3.78359327e+04 -1.97428564e+05  2.30e+05 6.66e-16  2.45e+01     0s
   2   5.90318773e+03 -6.10475274e+04  1.82e+04 1.38e-02  2.42e+00     0s
   3   2.29257516e+03 -3.04940493e+04  2.27e+03 4.83e-03  5.47e-01     0s
   4   1.64178002e+03 -8.35628781e+03  7.05e+02 1.01e-03  1.57e-01     0s
   5   8.31132684e+02 -2.68206695e+03  2.04e+02 2.05e-04  5.07e-02     0s
   6   6.06025273e+02 -1.75533996e+03  1.08e+02 9.33e-05  3.17e-02     0s
   7   5.22774168e+02 -8.99864015e+02  7.62e+01 5.00e-16  1.89e-02     0s
   8   4.11708931e+02 -5.68263725e+02  3.93e+01 3.43e-16  1.22e-02     0s
   9   3.65871730e+02 -1.95410696e+02  2.98e+01 3.88e-16  7.06e-03     0s
  10   3.17901662e+02 -1.14755590e+02  2.02e+01 4.02e-16  5.32e-03     0s
  11   3.02804533e+02 -3.13990472e+01  1.75e+01 3.56e-16  4.11e-03     0s
  12   2.75259863e+02  2.94665651e+01  1.25e+01 3.16e-16  2.98e-03     0s
  13   2.51828564e+02  7.82359838e+01  8.73e+00 3.33e-16  2.08e-03     0s
  14   2.38323779e+02  1.04264909e+02  6.73e+00 2.79e-16  1.59e-03     0s
  15   2.30502325e+02  1.25018530e+02  5.63e+00 3.87e-16  1.25e-03     0s
  16   2.23437213e+02  1.31236732e+02  4.64e+00 3.71e-16  1.08e-03     0s
  17   2.19782856e+02  1.34780547e+02  4.12e+00 4.37e-16  9.92e-04     0s
  18   2.17294093e+02  1.42144937e+02  3.77e+00 4.63e-16  8.75e-04     0s
  19   2.15217381e+02  1.48182625e+02  3.45e+00 4.46e-16  7.79e-04     0s
  20   2.13437095e+02  1.53672825e+02  3.16e+00 4.44e-16  6.92e-04     1s
  21   2.06538591e+02  1.61465591e+02  1.49e+00 4.51e-16  5.07e-04     1s
  22   2.03719666e+02  1.74456667e+02  1.06e+00 3.89e-16  3.27e-04     1s
  23   2.01066199e+02  1.80400360e+02  6.08e-01 3.33e-16  2.29e-04     1s
  24   2.00319776e+02  1.85394375e+02  4.84e-01 3.19e-16  1.65e-04     1s
  25   1.99700187e+02  1.87481668e+02  3.77e-01 3.37e-16  1.34e-04     1s
  26   1.98844828e+02  1.90138263e+02  2.35e-01 3.96e-16  9.54e-05     1s
  27   1.98425450e+02  1.90834036e+02  1.74e-01 5.03e-16  8.30e-05     1s
  28   1.98056598e+02  1.92300945e+02  1.27e-01 4.81e-16  6.29e-05     1s
  29   1.97891926e+02  1.93201362e+02  1.07e-01 5.65e-16  5.12e-05     1s
  30   1.97642359e+02  1.93991625e+02  7.79e-02 6.09e-16  3.98e-05     1s
  31   1.97510912e+02  1.94563216e+02  6.39e-02 6.34e-16  3.21e-05     1s
  32   1.97274462e+02  1.94702280e+02  4.22e-02 5.67e-16  2.80e-05     1s
  33   1.97172286e+02  1.95113690e+02  3.31e-02 4.07e-16  2.24e-05     1s
  34   1.97095588e+02  1.95607815e+02  2.62e-02 3.50e-16  1.62e-05     1s
  35   1.97027419e+02  1.95748894e+02  2.04e-02 4.32e-16  1.39e-05     1s
  36   1.96967753e+02  1.95907858e+02  1.54e-02 3.33e-16  1.15e-05     1s
  37   1.96889626e+02  1.96154858e+02  9.20e-03 3.33e-16  7.99e-06     1s
  38   1.96860721e+02  1.96289383e+02  7.11e-03 3.33e-16  6.21e-06     1s
  39   1.96837466e+02  1.96366244e+02  5.71e-03 3.55e-16  5.12e-06     1s
  40   1.96829998e+02  1.96416126e+02  5.14e-03 4.44e-16  4.50e-06     1s
  41   1.96812598e+02  1.96448612e+02  4.25e-03 5.55e-16  3.95e-06     1s
  42   1.96802005e+02  1.96480875e+02  3.70e-03 3.33e-16  3.49e-06     1s
  43   1.96793341e+02  1.96562160e+02  3.27e-03 2.77e-16  2.51e-06     1s
  44   1.96778221e+02  1.96569073e+02  2.52e-03 3.62e-16  2.27e-06     1s
  45   1.96760692e+02  1.96620949e+02  1.78e-03 2.73e-16  1.52e-06     1s
  46   1.96752712e+02  1.96640235e+02  1.57e-03 2.41e-16  1.22e-06     1s
  47   1.96744865e+02  1.96643139e+02  1.33e-03 3.33e-16  1.11e-06     1s
  48   1.96743176e+02  1.96661581e+02  1.22e-03 2.72e-16  8.87e-07     1s
  49   1.96733997e+02  1.96694014e+02  7.54e-04 3.33e-16  4.35e-07     1s
  50   1.96725717e+02  1.96700249e+02  4.80e-04 3.33e-16  2.77e-07     1s
  51   1.96716427e+02  1.96704539e+02  2.08e-04 2.70e-16  1.29e-07     1s
  52   1.96709334e+02  1.96707316e+02  2.67e-05 3.33e-16  2.19e-08     1s
  53   1.96708170e+02  1.96708161e+02  3.22e-08 4.44e-16  9.49e-11     1s
  54   1.96708166e+02  1.96708166e+02  1.45e-12 3.63e-16  9.49e-14     1s

Barrier solved model in 54 iterations and 1.25 seconds
Optimal objective 1.96708166e+02


Root relaxation: objective 1.967082e+02, 4233 iterations, 1.37 seconds

    Nodes    |    Current Node    |     Objective Bounds      |     Work
 Expl Unexpl |  Obj  Depth IntInf | Incumbent    BestBd   Gap | It/Node Time

     0     0  196.70817    0  249          -  196.70817     -      -    2s
H    0     0                     200.0000000  196.70817  1.65%     -    3s
H    0     0                     199.0000000  196.70817  1.15%     -    4s
H    0     0                     197.0000000  196.70817  0.15%     -   10s

Explored 0 nodes (9201 simplex iterations) in 10.73 seconds
Thread count was 1 (of 4 available processors)

Optimal solution found (tolerance 0.00e+00)
Best objective 1.970000000000e+02, best bound 1.970000000000e+02, gap 0.0%
Preprocessing time: 0.43 seconds
Gurobi run time: 10.73 seconds
Total run time: 11.16 seconds
Objective: 197
Solution:
1 x [i=1, i=195]
1 x [i=2, i=264, i=276]
2 x [i=3, i=194]
1 x [i=3, i=269, i=272]
1 x [i=4, i=262, i=276]
1 x [i=4, i=263, i=275]
1 x [i=5, i=193]
1 x [i=6, i=253, i=282]
1 x [i=6, i=258, i=277]
1 x [i=7, i=241, i=297]
1 x [i=8, i=192]
1 x [i=9, i=242, i=294]
1 x [i=9, i=244, i=292]
2 x [i=10, i=191]
1 x [i=10, i=238, i=298]
1 x [i=10, i=247, i=288]
1 x [i=11, i=259, i=273]
1 x [i=12, i=257, i=274]
1 x [i=12, i=261, i=272]
2 x [i=12, i=265, i=270]
1 x [i=13, i=190]
1 x [i=13, i=257, i=273]
1 x [i=14, i=189]
1 x [i=14, i=241, i=291]
1 x [i=15, i=188]
3 x [i=16, i=187]
1 x [i=16, i=247, i=283]
1 x [i=17, i=186]
1 x [i=17, i=245, i=285]
1 x [i=17, i=266, i=266]
1 x [i=18, i=238, i=291]
1 x [i=19, i=185]
1 x [i=19, i=264, i=266]
1 x [i=20, i=184]
1 x [i=21, i=183]
2 x [i=22, i=179]
1 x [i=22, i=229, i=294]
1 x [i=23, i=178]
1 x [i=24, i=176]
1 x [i=24, i=252]
1 x [i=25, i=174]
1 x [i=26, i=172]
1 x [i=27, i=235, i=281]
1 x [i=27, i=237, i=279]
1 x [i=28, i=232, i=285]
1 x [i=29, i=171]
1 x [i=30, i=170]
1 x [i=30, i=233, i=281]
3 x [i=31, i=169]
1 x [i=32, i=232, i=281]
1 x [i=33, i=168]
2 x [i=34, i=167]
2 x [i=35, i=166]
1 x [i=35, i=222, i=291]
1 x [i=35, i=230]
1 x [i=36, i=165]
1 x [i=37, i=163]
1 x [i=37, i=164]
1 x [i=37, i=232, i=277]
1 x [i=37, i=243, i=268]
1 x [i=38, i=161]
1 x [i=39, i=159]
1 x [i=39, i=250, i=252]
1 x [i=40, i=158]
1 x [i=41, i=157]
1 x [i=42, i=156]
1 x [i=42, i=224, i=283]
1 x [i=42, i=238, i=267]
1 x [i=43, i=223, i=283]
1 x [i=44, i=155]
1 x [i=45, i=219, i=280]
2 x [i=46, i=150]
1 x [i=47, i=226, i=271]
1 x [i=48, i=148]
1 x [i=49, i=206, i=288]
1 x [i=49, i=207, i=287]
1 x [i=50, i=144]
2 x [i=51, i=143]
1 x [i=51, i=206, i=284]
1 x [i=52, i=236, i=251]
1 x [i=53, i=142]
2 x [i=54, i=142]
1 x [i=55, i=208, i=278]
1 x [i=55, i=232, i=254]
1 x [i=56, i=141]
1 x [i=57, i=140]
1 x [i=57, i=141]
1 x [i=58, i=220, i=269]
1 x [i=58, i=240, i=245]
1 x [i=59, i=138]
1 x [i=59, i=217, i=270]
1 x [i=60, i=195, i=290]
1 x [i=60, i=210, i=273]
1 x [i=60, i=235, i=248]
1 x [i=61, i=137]
2 x [i=62, i=136]
1 x [i=62, i=224, i=261]
1 x [i=63, i=135]
1 x [i=64, i=134]
1 x [i=65, i=133]
1 x [i=66, i=130]
1 x [i=67, i=129]
1 x [i=68, i=127]
1 x [i=69, i=205, i=270]
1 x [i=70, i=122]
1 x [i=71, i=195, i=275]
1 x [i=71, i=214, i=255]
1 x [i=72, i=121]
1 x [i=72, i=206, i=263]
1 x [i=73, i=120]
1 x [i=73, i=199, i=270]
1 x [i=74, i=173, i=298]
1 x [i=74, i=202, i=267]
1 x [i=75, i=119]
1 x [i=76, i=183, i=286]
1 x [i=77, i=181, i=288]
1 x [i=77, i=203, i=260]
1 x [i=78, i=118]
1 x [i=79, i=217, i=248]
4 x [i=80, i=117]
1 x [i=81, i=116]
1 x [i=82, i=115]
1 x [i=83, i=175, i=289]
1 x [i=84, i=114]
1 x [i=85, i=113]
1 x [i=86, i=112]
1 x [i=86, i=201, i=254]
1 x [i=87, i=110]
1 x [i=88, i=161, i=294]
1 x [i=89, i=160, i=295]
1 x [i=90, i=158, i=296]
1 x [i=91, i=172, i=282]
1 x [i=92, i=218, i=237]
1 x [i=92, i=226, i=229]
2 x [i=93, i=108]
1 x [i=93, i=109]
1 x [i=93, i=164, i=289]
1 x [i=93, i=225, i=230]
1 x [i=94, i=105]
1 x [i=95, i=103]
1 x [i=95, i=104]
1 x [i=95, i=198, i=249]
1 x [i=96, i=102]
1 x [i=96, i=167, i=282]
1 x [i=97, i=101]
2 x [i=98, i=100]
1 x [i=98, i=152, i=293]
1 x [i=98, i=215, i=232]
1 x [i=99, i=188, i=258]
1 x [i=105, i=146, i=294]
1 x [i=105, i=213, i=228]
1 x [i=106, i=145, i=294]
1 x [i=107, i=197, i=241]
1 x [i=107, i=204, i=234]
1 x [i=107, i=212, i=228]
1 x [i=111, i=212, i=224]
1 x [i=113, i=211, i=221]
1 x [i=115, i=200, i=227]
1 x [i=119, i=165, i=256]
1 x [i=123, i=131, i=285]
1 x [i=123, i=201, i=217]
1 x [i=124, i=167, i=250]
1 x [i=125, i=137, i=278]
1 x [i=126, i=195, i=223]
1 x [i=126, i=199, i=216]
1 x [i=128, i=177, i=239]
1 x [i=132, i=177, i=235]
1 x [i=137, i=196, i=210]
1 x [i=139, i=195, i=208]
1 x [i=141, i=173, i=231]
1 x [i=142, i=199, i=199]
1 x [i=144, i=173, i=227]
1 x [i=144, i=182, i=221]
1 x [i=147, i=151, i=246]
1 x [i=149, i=153, i=242]
1 x [i=151, i=180, i=217]
1 x [i=154, i=180, i=213]
1 x [i=162, i=173, i=209]
